maximize
OBJ:100x0 + 100x1 + 100x2 + 100x3 + 100x4 + 100x5 + 100x6 + 100x7 + 100x8 + 100x9 + 100x10 + 100x11 + 100x12 + 100x13 + 100x14 + 100x15 + 100x16 + 100x17 + 100x18 + 100x19 + 100x20 + 100x21 + 100x22 + 100x23 + 100x24 + 100x25 + 100x26 + 100x27 + 100x28 + 100x29 + 100x30 + 100x31 + 100x32 + 100x33 + 100x34 + 100x35 + 100x36 + 100x37 + 100x38 + 100x39 + 100x40 + 100x41 + 100x42 + 100x43 + 100x44 + 100x45 + 100x46 + 100x47 + 100x48 + 100x49 + 100x50 + 100x51 + 100x52 + 100x53 + 100x54 + 100x55 + 100x56 + 100x57 + 100x58 + 100x59 + 100x60 + 100x61 - y15_21 - y55_57 - y7_17 - y36_53 - y7_35 - y29_32 - y40_41 - y48_54 - y11_14 - y40_50 - y11_23 - y33_38 - y25_34 - y10_45 - y2_41 - y3_15 - y32_60 - y3_33 - y3_42 - y28_53 - y7_30 - y9_49 - y6_34 - y29_36 - y0_9 - y6_43 - y29_54 - y21_59 - y25_38 - y10_49 - y25_47 - y3_10 - y10_58 - y51_59 - y3_28 - y14_28 - y13_60 - y14_37 - y55_56 - y28_39 - y47_52 - y47_61 - y28_57 - y29_40 - y48_53 - y10_17 - y10_44 - y43_50 - y22_27 - y35_46 - y3_23 - y14_23 - y1_53 - y24_55 - y14_32 - y36_38 - y17_34 - y7_11 - y47_56 - y5_50 - y5_59 - y21_22 - y50_58 - y29_35 - y29_44 - y10_12 - y10_21 - y25_28 - y23_58 - y32_36 - y32_45 - y51_58 - y43_54 - y1_48 - y35_50 - y1_57 - y35_59 - y17_20 - y17_29 - y36_42 - y9_25 - y17_38 - y28_38 - y5_45 - y17_47 - y9_43 - y17_56 - y28_56 - y9_61 - y42_58 - y21_35 - y6_46 - y39_43 - y2_3 - y2_12 - y31_57 - y23_53 - y24_27 - y1_43 - y13_45 - y35_45 - y43_58 - y13_54 - y17_24 - y46_60 - y17_33 - y5_40 - y9_38 - y5_49 - y6_14 - y27_55 - y0_56 - y2_7 - y31_43 - y39_56 - y12_39 - y23_39 - y2_16 - y23_57 - y32_35 - y43_44 - y24_40 - y16_36 - y24_49 - y35_58 - y9_24 - y49_60 - y5_35 - y19_46 - y8_55 - y42_57 - y20_29 - y39_51 - y23_34 - y31_47 - y31_56 - y12_52 - y13_17 - y23_52 - y13_26 - y32_39 - y16_22 - y35_44 - y16_49 - y46_50 - y57_59 - y26_53 - y49_55 - y9_28 - y5_39 - y7_58 - y8_32 - y27_54 - y50_56 - y42_52 - y30_59 - y20_24 - y31_33 - y12_47 - y1_10 - y53_57 - y1_28 - y37_58 - y38_41 - y9_14 - y15_48 - y18_53 - y19_27 - y27_49 - y0_32 - y50_51 - y30_45 - y30_54 - y11_50 - y11_59 - y12_24 - y23_24 - y20_37 - y23_33 - y1_5 - y13_16 - y34_48 - y1_23 - y16_21 - y22_55 - y14_60 - y26_52 - y7_48 - y8_13 - y7_57 - y8_22 - y11_18 - y0_27 - y11_36 - y8_49 - y41_46 - y30_58 - y20_23 - y0_54 - y12_19 - y20_32 - y33_51 - y23_28 - y12_37 - y1_9 - y1_18 - y45_52 - y3_46 - y14_46 - y14_55 - y26_29 - y18_25 - y26_38 - y18_34 - y27_30 - y27_39 - y0_22 - y0_31 - y11_31 - y8_44 - y19_44 - y52_59 - y4_19 - y33_55 - y4_28 - y2_58 - y25_60 - y3_32 - y22_45 - y3_41 - y14_41 - y37_43 - y45_56 - y3_50 - y14_50 - y18_20 - y15_42 - y26_51 - y7_47 - y0_8 - y48_57 - y0_17 - y19_30 - y0_26 - y11_26 - y33_41 - y25_37 - y4_14 - y2_44 - y10_57 - y33_59 - y44_59 - y2_53 - y3_27 - y14_36 - y45_51 - y3_45 - y14_54 - y7_15 - y26_28 - y36_60 - y7_33 - y26_46 - y0_3 - y29_39 - y48_52 - y40_48 - y21_44 - y0_21 - y40_57 - y41_49 - y44_45 - y41_58 - y2_48 - y34_37 - y14_49 - y36_46 - y15_23 - y15_32 - y7_37 - y9_56 - y8_11 - y40_43 - y6_50 - y29_52 - y29_61 - y41_44 - y33_49 - y2_43 - y25_45 - y10_56 - y14_17 - y14_26 - y14_44 - y47_59 - y17_55 - y29_38 - y48_51 - y21_43 - y6_54 - y21_61 - y10_33 - y33_35 - y2_38 - y2_47 - y3_12 - y43_48 - y32_57 - y16_58 - y7_9 - y28_41 - y28_50 - y9_46 - y28_59 - y9_55 - y29_51 - y40_51 - y2_6 - y39_55 - y2_15 - y10_28 - y25_26 - y25_35 - y32_34 - y2_42 - y32_43 - y51_56 - y13_39 - y24_39 - y3_16 - y13_48 - y17_18 - y36_40 - y28_45 - y9_50 - y29_37 - y21_42 - y31_46 - y10_32 - y12_51 - y23_51 - y12_60 - y23_60 - y2_37 - y43_47 - y32_56 - y1_50 - y13_52 - y35_52 - y35_61 - y16_57 - y9_18 - y17_31 - y28_31 - y9_27 - y5_38 - y5_47 - y28_49 - y6_21 - y58_59 - y21_28 - y42_60 - y39_45 - y20_41 - y10_18 - y12_46 - y2_23 - y4_42 - y54_61 - y23_55 - y4_51 - y4_60 - y51_55 - y16_34 - y35_47 - y36_39 - y5_33 - y27_48 - y21_23 - y27_57 - y50_59 - y11_58 - y20_36 - y31_36 - y39_49 - y31_45 - y12_41 - y54_56 - y13_15 - y4_46 - y12_59 - y23_59 - y4_55 - y32_37 - y35_42 - y24_51 - y16_47 - y46_48 - y38_44 - y5_19 - y17_21 - y17_30 - y26_60 - y5_37 - y27_34 - y8_39 - y8_48 - y27_61 - y8_57 - y19_57 - y0_53 - y12_18 - y12_27 - y2_4 - y20_40 - y39_53 - y20_49 - y4_32 - y31_49 - y4_41 - y12_54 - y1_17 - y13_19 - y13_28 - y24_37 - y35_37 - y1_44 - y16_42 - y15_46 - y5_23 - y57_61 - y9_21 - y26_55 - y27_29 - y7_60 - y8_43 - y42_45 - y0_48 - y8_61 - y20_26 - y30_61 - y11_57 - y12_22 - y31_35 - y4_18 - y12_40 - y12_49 - y1_12 - y34_46 - y4_54 - y37_51 - y14_58 - y5_9 - y9_16 - y26_50 - y15_59 - y38_61 - y8_20 - y19_29 - y27_42 - y0_25 - y8_38 - y19_38 - y30_38 - y8_47 - y30_47 - y42_49 - y0_43 - y11_43 - y8_56 - y11_52 - y4_13 - y11_61 - y12_26 - y44_58 - y12_35 - y4_40 - y13_18 - y22_57 - y45_59 - y56_59 - y15_36 - y5_13 - y7_41 - y7_50 - y27_28 - y7_59 - y8_24 - y19_24 - y0_20 - y19_33 - y19_42 - y0_38 - y11_38 - y30_51 - y12_21 - y33_53 - y44_53 - y23_30 - y4_26 - y1_11 - y22_43 - y1_20 - y14_48 - y22_61 - y37_59 - y18_27 - y18_36 - y15_58 - y18_54 - y7_54 - y8_19 - y11_15 - y19_28 - y8_37 - y19_37 - y0_42 - y11_42 - y41_52 - y4_12 - y10_46 - y33_48 - y25_44 - y44_48 - y1_6 - y34_40 - y14_43 - y37_45 - y45_58 - y56_58 - y37_54 - y15_17 - y26_35 - y15_44 - y7_40 - y18_49 - y29_46 - y8_23 - y19_23 - y6_53 - y11_19 - y21_51 - y11_28 - y25_30 - y4_16 - y10_50 - y25_48 - y10_59 - y22_24 - y14_20 - y3_29 - y14_38 - y3_56
 Subject to
C1: x0+x3-y0_3 <=1 
C2: x0+x5 <=1 
C3: x0+x8-y0_8 <=1 
C4: x0+x9-y0_9 <=1 
C5: x0+x13 <=1 
C6: x0+x14 <=1 
C7: x0+x15 <=1 
C8: x0+x17-y0_17 <=1 
C9: x0+x19 <=1 
C10: x0+x20-y0_20 <=1 
C11: x0+x21-y0_21 <=1 
C12: x0+x22-y0_22 <=1 
C13: x0+x24 <=1 
C14: x0+x25-y0_25 <=1 
C15: x0+x26-y0_26 <=1 
C16: x0+x27-y0_27 <=1 
C17: x0+x28 <=1 
C18: x0+x29 <=1 
C19: x0+x31-y0_31 <=1 
C20: x0+x32-y0_32 <=1 
C21: x0+x33 <=1 
C22: x0+x36 <=1 
C23: x0+x37 <=1 
C24: x0+x38-y0_38 <=1 
C25: x0+x41 <=1 
C26: x0+x42-y0_42 <=1 
C27: x0+x43-y0_43 <=1 
C28: x0+x46 <=1 
C29: x0+x48-y0_48 <=1 
C30: x0+x49 <=1 
C31: x0+x52 <=1 
C32: x0+x53-y0_53 <=1 
C33: x0+x54-y0_54 <=1 
C34: x0+x55 <=1 
C35: x0+x56-y0_56 <=1 
C36: x0+x57 <=1 
C37: x0+x59 <=1 
C38: x0+x60 <=1 
C39: x1+x4 <=1 
C40: x1+x5-y1_5 <=1 
C41: x1+x6-y1_6 <=1 
C42: x1+x7 <=1 
C43: x1+x8 <=1 
C44: x1+x9-y1_9 <=1 
C45: x1+x10-y1_10 <=1 
C46: x1+x11-y1_11 <=1 
C47: x1+x12-y1_12 <=1 
C48: x1+x14 <=1 
C49: x1+x17-y1_17 <=1 
C50: x1+x18-y1_18 <=1 
C51: x1+x19 <=1 
C52: x1+x20-y1_20 <=1 
C53: x1+x21 <=1 
C54: x1+x23-y1_23 <=1 
C55: x1+x24 <=1 
C56: x1+x26 <=1 
C57: x1+x28-y1_28 <=1 
C58: x1+x31 <=1 
C59: x1+x33 <=1 
C60: x1+x35 <=1 
C61: x1+x38 <=1 
C62: x1+x39 <=1 
C63: x1+x41 <=1 
C64: x1+x42 <=1 
C65: x1+x43-y1_43 <=1 
C66: x1+x44-y1_44 <=1 
C67: x1+x45 <=1 
C68: x1+x46 <=1 
C69: x1+x48-y1_48 <=1 
C70: x1+x50-y1_50 <=1 
C71: x1+x53-y1_53 <=1 
C72: x1+x55 <=1 
C73: x1+x57-y1_57 <=1 
C74: x1+x59 <=1 
C75: x1+x60 <=1 
C76: x2+x3-y2_3 <=1 
C77: x2+x4-y2_4 <=1 
C78: x2+x6-y2_6 <=1 
C79: x2+x7-y2_7 <=1 
C80: x2+x12-y2_12 <=1 
C81: x2+x14 <=1 
C82: x2+x15-y2_15 <=1 
C83: x2+x16-y2_16 <=1 
C84: x2+x18 <=1 
C85: x2+x19 <=1 
C86: x2+x23-y2_23 <=1 
C87: x2+x25 <=1 
C88: x2+x27 <=1 
C89: x2+x29 <=1 
C90: x2+x31 <=1 
C91: x2+x32 <=1 
C92: x2+x33 <=1 
C93: x2+x34 <=1 
C94: x2+x35 <=1 
C95: x2+x37-y2_37 <=1 
C96: x2+x38-y2_38 <=1 
C97: x2+x41-y2_41 <=1 
C98: x2+x42-y2_42 <=1 
C99: x2+x43-y2_43 <=1 
C100: x2+x44-y2_44 <=1 
C101: x2+x47-y2_47 <=1 
C102: x2+x48-y2_48 <=1 
C103: x2+x50 <=1 
C104: x2+x52 <=1 
C105: x2+x53-y2_53 <=1 
C106: x2+x56 <=1 
C107: x2+x57 <=1 
C108: x2+x58-y2_58 <=1 
C109: x2+x60 <=1 
C110: x3+x7 <=1 
C111: x3+x10-y3_10 <=1 
C112: x3+x11 <=1 
C113: x3+x12-y3_12 <=1 
C114: x3+x13 <=1 
C115: x3+x15-y3_15 <=1 
C116: x3+x16-y3_16 <=1 
C117: x3+x17 <=1 
C118: x3+x18 <=1 
C119: x3+x20 <=1 
C120: x3+x21 <=1 
C121: x3+x23-y3_23 <=1 
C122: x3+x27-y3_27 <=1 
C123: x3+x28-y3_28 <=1 
C124: x3+x29-y3_29 <=1 
C125: x3+x32-y3_32 <=1 
C126: x3+x33-y3_33 <=1 
C127: x3+x37 <=1 
C128: x3+x41-y3_41 <=1 
C129: x3+x42-y3_42 <=1 
C130: x3+x44 <=1 
C131: x3+x45-y3_45 <=1 
C132: x3+x46-y3_46 <=1 
C133: x3+x48 <=1 
C134: x3+x49 <=1 
C135: x3+x50-y3_50 <=1 
C136: x3+x51 <=1 
C137: x3+x53 <=1 
C138: x3+x54 <=1 
C139: x3+x55 <=1 
C140: x3+x56-y3_56 <=1 
C141: x3+x58 <=1 
C142: x3+x60 <=1 
C143: x4+x6 <=1 
C144: x4+x12-y4_12 <=1 
C145: x4+x13-y4_13 <=1 
C146: x4+x14-y4_14 <=1 
C147: x4+x16-y4_16 <=1 
C148: x4+x17 <=1 
C149: x4+x18-y4_18 <=1 
C150: x4+x19-y4_19 <=1 
C151: x4+x22 <=1 
C152: x4+x23 <=1 
C153: x4+x24 <=1 
C154: x4+x25 <=1 
C155: x4+x26-y4_26 <=1 
C156: x4+x28-y4_28 <=1 
C157: x4+x29 <=1 
C158: x4+x31 <=1 
C159: x4+x32-y4_32 <=1 
C160: x4+x35 <=1 
C161: x4+x37 <=1 
C162: x4+x38 <=1 
C163: x4+x40-y4_40 <=1 
C164: x4+x41-y4_41 <=1 
C165: x4+x42-y4_42 <=1 
C166: x4+x46-y4_46 <=1 
C167: x4+x49 <=1 
C168: x4+x51-y4_51 <=1 
C169: x4+x52 <=1 
C170: x4+x54-y4_54 <=1 
C171: x4+x55-y4_55 <=1 
C172: x4+x56 <=1 
C173: x4+x58 <=1 
C174: x4+x59 <=1 
C175: x4+x60-y4_60 <=1 
C176: x4+x61 <=1 
C177: x5+x8 <=1 
C178: x5+x9-y5_9 <=1 
C179: x5+x11 <=1 
C180: x5+x13-y5_13 <=1 
C181: x5+x18 <=1 
C182: x5+x19-y5_19 <=1 
C183: x5+x20 <=1 
C184: x5+x22 <=1 
C185: x5+x23-y5_23 <=1 
C186: x5+x24 <=1 
C187: x5+x25 <=1 
C188: x5+x31 <=1 
C189: x5+x32 <=1 
C190: x5+x33-y5_33 <=1 
C191: x5+x35-y5_35 <=1 
C192: x5+x37-y5_37 <=1 
C193: x5+x38-y5_38 <=1 
C194: x5+x39-y5_39 <=1 
C195: x5+x40-y5_40 <=1 
C196: x5+x41 <=1 
C197: x5+x44 <=1 
C198: x5+x45-y5_45 <=1 
C199: x5+x46 <=1 
C200: x5+x47-y5_47 <=1 
C201: x5+x48 <=1 
C202: x5+x49-y5_49 <=1 
C203: x5+x50-y5_50 <=1 
C204: x5+x52 <=1 
C205: x5+x54 <=1 
C206: x5+x56 <=1 
C207: x5+x59-y5_59 <=1 
C208: x5+x60 <=1 
C209: x6+x7 <=1 
C210: x6+x12 <=1 
C211: x6+x13 <=1 
C212: x6+x14-y6_14 <=1 
C213: x6+x15 <=1 
C214: x6+x17 <=1 
C215: x6+x21-y6_21 <=1 
C216: x6+x22 <=1 
C217: x6+x23 <=1 
C218: x6+x25 <=1 
C219: x6+x29 <=1 
C220: x6+x32 <=1 
C221: x6+x33 <=1 
C222: x6+x34-y6_34 <=1 
C223: x6+x37 <=1 
C224: x6+x38 <=1 
C225: x6+x42 <=1 
C226: x6+x43-y6_43 <=1 
C227: x6+x44 <=1 
C228: x6+x46-y6_46 <=1 
C229: x6+x47 <=1 
C230: x6+x49 <=1 
C231: x6+x50-y6_50 <=1 
C232: x6+x53-y6_53 <=1 
C233: x6+x54-y6_54 <=1 
C234: x6+x59 <=1 
C235: x6+x61 <=1 
C236: x7+x9-y7_9 <=1 
C237: x7+x10 <=1 
C238: x7+x11-y7_11 <=1 
C239: x7+x14 <=1 
C240: x7+x15-y7_15 <=1 
C241: x7+x17-y7_17 <=1 
C242: x7+x18 <=1 
C243: x7+x22 <=1 
C244: x7+x24 <=1 
C245: x7+x28 <=1 
C246: x7+x29 <=1 
C247: x7+x30-y7_30 <=1 
C248: x7+x31 <=1 
C249: x7+x33-y7_33 <=1 
C250: x7+x35-y7_35 <=1 
C251: x7+x36 <=1 
C252: x7+x37-y7_37 <=1 
C253: x7+x40-y7_40 <=1 
C254: x7+x41-y7_41 <=1 
C255: x7+x46 <=1 
C256: x7+x47-y7_47 <=1 
C257: x7+x48-y7_48 <=1 
C258: x7+x50-y7_50 <=1 
C259: x7+x51 <=1 
C260: x7+x54-y7_54 <=1 
C261: x7+x55 <=1 
C262: x7+x57-y7_57 <=1 
C263: x7+x58-y7_58 <=1 
C264: x7+x59-y7_59 <=1 
C265: x7+x60-y7_60 <=1 
C266: x7+x61 <=1 
C267: x8+x9 <=1 
C268: x8+x10 <=1 
C269: x8+x11-y8_11 <=1 
C270: x8+x13-y8_13 <=1 
C271: x8+x14 <=1 
C272: x8+x15 <=1 
C273: x8+x19-y8_19 <=1 
C274: x8+x20-y8_20 <=1 
C275: x8+x22-y8_22 <=1 
C276: x8+x23-y8_23 <=1 
C277: x8+x24-y8_24 <=1 
C278: x8+x27 <=1 
C279: x8+x29 <=1 
C280: x8+x30 <=1 
C281: x8+x31 <=1 
C282: x8+x32-y8_32 <=1 
C283: x8+x33 <=1 
C284: x8+x37-y8_37 <=1 
C285: x8+x38-y8_38 <=1 
C286: x8+x39-y8_39 <=1 
C287: x8+x41 <=1 
C288: x8+x43-y8_43 <=1 
C289: x8+x44-y8_44 <=1 
C290: x8+x45 <=1 
C291: x8+x46 <=1 
C292: x8+x47-y8_47 <=1 
C293: x8+x48-y8_48 <=1 
C294: x8+x49-y8_49 <=1 
C295: x8+x50 <=1 
C296: x8+x51 <=1 
C297: x8+x52 <=1 
C298: x8+x54 <=1 
C299: x8+x55-y8_55 <=1 
C300: x8+x56-y8_56 <=1 
C301: x8+x57-y8_57 <=1 
C302: x8+x59 <=1 
C303: x8+x61-y8_61 <=1 
C304: x9+x13 <=1 
C305: x9+x14-y9_14 <=1 
C306: x9+x15 <=1 
C307: x9+x16-y9_16 <=1 
C308: x9+x18-y9_18 <=1 
C309: x9+x21-y9_21 <=1 
C310: x9+x22 <=1 
C311: x9+x23 <=1 
C312: x9+x24-y9_24 <=1 
C313: x9+x25-y9_25 <=1 
C314: x9+x27-y9_27 <=1 
C315: x9+x28-y9_28 <=1 
C316: x9+x29 <=1 
C317: x9+x33 <=1 
C318: x9+x35 <=1 
C319: x9+x36 <=1 
C320: x9+x38-y9_38 <=1 
C321: x9+x43-y9_43 <=1 
C322: x9+x44 <=1 
C323: x9+x46-y9_46 <=1 
C324: x9+x49-y9_49 <=1 
C325: x9+x50-y9_50 <=1 
C326: x9+x53 <=1 
C327: x9+x55-y9_55 <=1 
C328: x9+x56-y9_56 <=1 
C329: x9+x59 <=1 
C330: x9+x60 <=1 
C331: x9+x61-y9_61 <=1 
C332: x10+x12-y10_12 <=1 
C333: x10+x14 <=1 
C334: x10+x17-y10_17 <=1 
C335: x10+x18-y10_18 <=1 
C336: x10+x19 <=1 
C337: x10+x20 <=1 
C338: x10+x21-y10_21 <=1 
C339: x10+x22 <=1 
C340: x10+x23 <=1 
C341: x10+x26 <=1 
C342: x10+x27 <=1 
C343: x10+x28-y10_28 <=1 
C344: x10+x29 <=1 
C345: x10+x31 <=1 
C346: x10+x32-y10_32 <=1 
C347: x10+x33-y10_33 <=1 
C348: x10+x34 <=1 
C349: x10+x36 <=1 
C350: x10+x37 <=1 
C351: x10+x39 <=1 
C352: x10+x40 <=1 
C353: x10+x41 <=1 
C354: x10+x42 <=1 
C355: x10+x44-y10_44 <=1 
C356: x10+x45-y10_45 <=1 
C357: x10+x46-y10_46 <=1 
C358: x10+x47 <=1 
C359: x10+x49-y10_49 <=1 
C360: x10+x50-y10_50 <=1 
C361: x10+x52 <=1 
C362: x10+x54 <=1 
C363: x10+x56-y10_56 <=1 
C364: x10+x57-y10_57 <=1 
C365: x10+x58-y10_58 <=1 
C366: x10+x59-y10_59 <=1 
C367: x11+x14-y11_14 <=1 
C368: x11+x15-y11_15 <=1 
C369: x11+x17 <=1 
C370: x11+x18-y11_18 <=1 
C371: x11+x19-y11_19 <=1 
C372: x11+x21 <=1 
C373: x11+x23-y11_23 <=1 
C374: x11+x24 <=1 
C375: x11+x26-y11_26 <=1 
C376: x11+x28-y11_28 <=1 
C377: x11+x29 <=1 
C378: x11+x31-y11_31 <=1 
C379: x11+x33 <=1 
C380: x11+x36-y11_36 <=1 
C381: x11+x38-y11_38 <=1 
C382: x11+x39 <=1 
C383: x11+x41 <=1 
C384: x11+x42-y11_42 <=1 
C385: x11+x43-y11_43 <=1 
C386: x11+x45 <=1 
C387: x11+x48 <=1 
C388: x11+x50-y11_50 <=1 
C389: x11+x51 <=1 
C390: x11+x52-y11_52 <=1 
C391: x11+x54 <=1 
C392: x11+x55 <=1 
C393: x11+x56 <=1 
C394: x11+x57-y11_57 <=1 
C395: x11+x58-y11_58 <=1 
C396: x11+x59-y11_59 <=1 
C397: x11+x61-y11_61 <=1 
C398: x12+x13 <=1 
C399: x12+x14 <=1 
C400: x12+x16 <=1 
C401: x12+x18-y12_18 <=1 
C402: x12+x19-y12_19 <=1 
C403: x12+x21-y12_21 <=1 
C404: x12+x22-y12_22 <=1 
C405: x12+x24-y12_24 <=1 
C406: x12+x25 <=1 
C407: x12+x26-y12_26 <=1 
C408: x12+x27-y12_27 <=1 
C409: x12+x28 <=1 
C410: x12+x29 <=1 
C411: x12+x32 <=1 
C412: x12+x33 <=1 
C413: x12+x35-y12_35 <=1 
C414: x12+x36 <=1 
C415: x12+x37-y12_37 <=1 
C416: x12+x39-y12_39 <=1 
C417: x12+x40-y12_40 <=1 
C418: x12+x41-y12_41 <=1 
C419: x12+x42 <=1 
C420: x12+x43 <=1 
C421: x12+x44 <=1 
C422: x12+x46-y12_46 <=1 
C423: x12+x47-y12_47 <=1 
C424: x12+x48 <=1 
C425: x12+x49-y12_49 <=1 
C426: x12+x50 <=1 
C427: x12+x51-y12_51 <=1 
C428: x12+x52-y12_52 <=1 
C429: x12+x54-y12_54 <=1 
C430: x12+x55 <=1 
C431: x12+x58 <=1 
C432: x12+x59-y12_59 <=1 
C433: x12+x60-y12_60 <=1 
C434: x13+x14 <=1 
C435: x13+x15-y13_15 <=1 
C436: x13+x16-y13_16 <=1 
C437: x13+x17-y13_17 <=1 
C438: x13+x18-y13_18 <=1 
C439: x13+x19-y13_19 <=1 
C440: x13+x20 <=1 
C441: x13+x21 <=1 
C442: x13+x22 <=1 
C443: x13+x23 <=1 
C444: x13+x24 <=1 
C445: x13+x26-y13_26 <=1 
C446: x13+x28-y13_28 <=1 
C447: x13+x30 <=1 
C448: x13+x31 <=1 
C449: x13+x35 <=1 
C450: x13+x38 <=1 
C451: x13+x39-y13_39 <=1 
C452: x13+x42 <=1 
C453: x13+x45-y13_45 <=1 
C454: x13+x48-y13_48 <=1 
C455: x13+x51 <=1 
C456: x13+x52-y13_52 <=1 
C457: x13+x53 <=1 
C458: x13+x54-y13_54 <=1 
C459: x13+x56 <=1 
C460: x13+x58 <=1 
C461: x13+x60-y13_60 <=1 
C462: x13+x61 <=1 
C463: x14+x17-y14_17 <=1 
C464: x14+x20-y14_20 <=1 
C465: x14+x23-y14_23 <=1 
C466: x14+x24 <=1 
C467: x14+x26-y14_26 <=1 
C468: x14+x28-y14_28 <=1 
C469: x14+x30 <=1 
C470: x14+x31 <=1 
C471: x14+x32-y14_32 <=1 
C472: x14+x36-y14_36 <=1 
C473: x14+x37-y14_37 <=1 
C474: x14+x38-y14_38 <=1 
C475: x14+x39 <=1 
C476: x14+x41-y14_41 <=1 
C477: x14+x43-y14_43 <=1 
C478: x14+x44-y14_44 <=1 
C479: x14+x46-y14_46 <=1 
C480: x14+x48-y14_48 <=1 
C481: x14+x49-y14_49 <=1 
C482: x14+x50-y14_50 <=1 
C483: x14+x51 <=1 
C484: x14+x52 <=1 
C485: x14+x54-y14_54 <=1 
C486: x14+x55-y14_55 <=1 
C487: x14+x56 <=1 
C488: x14+x58-y14_58 <=1 
C489: x14+x60-y14_60 <=1 
C490: x15+x16 <=1 
C491: x15+x17-y15_17 <=1 
C492: x15+x18 <=1 
C493: x15+x21-y15_21 <=1 
C494: x15+x22 <=1 
C495: x15+x23-y15_23 <=1 
C496: x15+x24 <=1 
C497: x15+x27 <=1 
C498: x15+x28 <=1 
C499: x15+x32-y15_32 <=1 
C500: x15+x36-y15_36 <=1 
C501: x15+x40 <=1 
C502: x15+x42-y15_42 <=1 
C503: x15+x44-y15_44 <=1 
C504: x15+x45 <=1 
C505: x15+x46-y15_46 <=1 
C506: x15+x48-y15_48 <=1 
C507: x15+x50 <=1 
C508: x15+x51 <=1 
C509: x15+x52 <=1 
C510: x15+x55 <=1 
C511: x15+x56 <=1 
C512: x15+x58-y15_58 <=1 
C513: x15+x59-y15_59 <=1 
C514: x15+x60 <=1 
C515: x15+x61 <=1 
C516: x16+x17 <=1 
C517: x16+x19 <=1 
C518: x16+x21-y16_21 <=1 
C519: x16+x22-y16_22 <=1 
C520: x16+x23 <=1 
C521: x16+x26 <=1 
C522: x16+x27 <=1 
C523: x16+x29 <=1 
C524: x16+x33 <=1 
C525: x16+x34-y16_34 <=1 
C526: x16+x35 <=1 
C527: x16+x36-y16_36 <=1 
C528: x16+x37 <=1 
C529: x16+x38 <=1 
C530: x16+x39 <=1 
C531: x16+x41 <=1 
C532: x16+x42-y16_42 <=1 
C533: x16+x46 <=1 
C534: x16+x47-y16_47 <=1 
C535: x16+x48 <=1 
C536: x16+x49-y16_49 <=1 
C537: x16+x51 <=1 
C538: x16+x54 <=1 
C539: x16+x55 <=1 
C540: x16+x57-y16_57 <=1 
C541: x16+x58-y16_58 <=1 
C542: x16+x59 <=1 
C543: x16+x61 <=1 
C544: x17+x18-y17_18 <=1 
C545: x17+x20-y17_20 <=1 
C546: x17+x21-y17_21 <=1 
C547: x17+x22 <=1 
C548: x17+x23 <=1 
C549: x17+x24-y17_24 <=1 
C550: x17+x25 <=1 
C551: x17+x26 <=1 
C552: x17+x28 <=1 
C553: x17+x29-y17_29 <=1 
C554: x17+x30-y17_30 <=1 
C555: x17+x31-y17_31 <=1 
C556: x17+x33-y17_33 <=1 
C557: x17+x34-y17_34 <=1 
C558: x17+x38-y17_38 <=1 
C559: x17+x40 <=1 
C560: x17+x41 <=1 
C561: x17+x43 <=1 
C562: x17+x44 <=1 
C563: x17+x45 <=1 
C564: x17+x47-y17_47 <=1 
C565: x17+x48 <=1 
C566: x17+x50 <=1 
C567: x17+x55-y17_55 <=1 
C568: x17+x56-y17_56 <=1 
C569: x17+x57 <=1 
C570: x17+x59 <=1 
C571: x17+x60 <=1 
C572: x18+x19 <=1 
C573: x18+x20-y18_20 <=1 
C574: x18+x22 <=1 
C575: x18+x25-y18_25 <=1 
C576: x18+x27-y18_27 <=1 
C577: x18+x29 <=1 
C578: x18+x34-y18_34 <=1 
C579: x18+x35 <=1 
C580: x18+x36-y18_36 <=1 
C581: x18+x38 <=1 
C582: x18+x39 <=1 
C583: x18+x43 <=1 
C584: x18+x44 <=1 
C585: x18+x45 <=1 
C586: x18+x46 <=1 
C587: x18+x47 <=1 
C588: x18+x49-y18_49 <=1 
C589: x18+x51 <=1 
C590: x18+x53-y18_53 <=1 
C591: x18+x54-y18_54 <=1 
C592: x18+x57 <=1 
C593: x18+x58 <=1 
C594: x18+x59 <=1 
C595: x18+x60 <=1 
C596: x19+x21 <=1 
C597: x19+x23-y19_23 <=1 
C598: x19+x24-y19_24 <=1 
C599: x19+x27-y19_27 <=1 
C600: x19+x28-y19_28 <=1 
C601: x19+x29-y19_29 <=1 
C602: x19+x30-y19_30 <=1 
C603: x19+x33-y19_33 <=1 
C604: x19+x34 <=1 
C605: x19+x35 <=1 
C606: x19+x37-y19_37 <=1 
C607: x19+x38-y19_38 <=1 
C608: x19+x41 <=1 
C609: x19+x42-y19_42 <=1 
C610: x19+x44-y19_44 <=1 
C611: x19+x46-y19_46 <=1 
C612: x19+x48 <=1 
C613: x19+x51 <=1 
C614: x19+x55 <=1 
C615: x19+x57-y19_57 <=1 
C616: x19+x59 <=1 
C617: x19+x60 <=1 
C618: x20+x21 <=1 
C619: x20+x22 <=1 
C620: x20+x23-y20_23 <=1 
C621: x20+x24-y20_24 <=1 
C622: x20+x25 <=1 
C623: x20+x26-y20_26 <=1 
C624: x20+x28 <=1 
C625: x20+x29-y20_29 <=1 
C626: x20+x30 <=1 
C627: x20+x32-y20_32 <=1 
C628: x20+x34 <=1 
C629: x20+x36-y20_36 <=1 
C630: x20+x37-y20_37 <=1 
C631: x20+x38 <=1 
C632: x20+x40-y20_40 <=1 
C633: x20+x41-y20_41 <=1 
C634: x20+x42 <=1 
C635: x20+x45 <=1 
C636: x20+x48 <=1 
C637: x20+x49-y20_49 <=1 
C638: x20+x50 <=1 
C639: x20+x54 <=1 
C640: x20+x57 <=1 
C641: x21+x22-y21_22 <=1 
C642: x21+x23-y21_23 <=1 
C643: x21+x24 <=1 
C644: x21+x27 <=1 
C645: x21+x28-y21_28 <=1 
C646: x21+x30 <=1 
C647: x21+x33 <=1 
C648: x21+x35-y21_35 <=1 
C649: x21+x39 <=1 
C650: x21+x40 <=1 
C651: x21+x42-y21_42 <=1 
C652: x21+x43-y21_43 <=1 
C653: x21+x44-y21_44 <=1 
C654: x21+x46 <=1 
C655: x21+x48 <=1 
C656: x21+x49 <=1 
C657: x21+x51-y21_51 <=1 
C658: x21+x53 <=1 
C659: x21+x54 <=1 
C660: x21+x55 <=1 
C661: x21+x57 <=1 
C662: x21+x58 <=1 
C663: x21+x59-y21_59 <=1 
C664: x21+x61-y21_61 <=1 
C665: x22+x23 <=1 
C666: x22+x24-y22_24 <=1 
C667: x22+x26 <=1 
C668: x22+x27-y22_27 <=1 
C669: x22+x28 <=1 
C670: x22+x29 <=1 
C671: x22+x30 <=1 
C672: x22+x31 <=1 
C673: x22+x33 <=1 
C674: x22+x35 <=1 
C675: x22+x38 <=1 
C676: x22+x39 <=1 
C677: x22+x40 <=1 
C678: x22+x42 <=1 
C679: x22+x43-y22_43 <=1 
C680: x22+x44 <=1 
C681: x22+x45-y22_45 <=1 
C682: x22+x46 <=1 
C683: x22+x47 <=1 
C684: x22+x49 <=1 
C685: x22+x50 <=1 
C686: x22+x51 <=1 
C687: x22+x55-y22_55 <=1 
C688: x22+x57-y22_57 <=1 
C689: x22+x59 <=1 
C690: x22+x61-y22_61 <=1 
C691: x23+x24-y23_24 <=1 
C692: x23+x25 <=1 
C693: x23+x26 <=1 
C694: x23+x27 <=1 
C695: x23+x28-y23_28 <=1 
C696: x23+x29 <=1 
C697: x23+x30-y23_30 <=1 
C698: x23+x31 <=1 
C699: x23+x33-y23_33 <=1 
C700: x23+x34-y23_34 <=1 
C701: x23+x35 <=1 
C702: x23+x39-y23_39 <=1 
C703: x23+x43 <=1 
C704: x23+x44 <=1 
C705: x23+x46 <=1 
C706: x23+x50 <=1 
C707: x23+x51-y23_51 <=1 
C708: x23+x52-y23_52 <=1 
C709: x23+x53-y23_53 <=1 
C710: x23+x55-y23_55 <=1 
C711: x23+x57-y23_57 <=1 
C712: x23+x58-y23_58 <=1 
C713: x23+x59-y23_59 <=1 
C714: x23+x60-y23_60 <=1 
C715: x24+x25 <=1 
C716: x24+x27-y24_27 <=1 
C717: x24+x28 <=1 
C718: x24+x31 <=1 
C719: x24+x33 <=1 
C720: x24+x36 <=1 
C721: x24+x37-y24_37 <=1 
C722: x24+x38 <=1 
C723: x24+x39-y24_39 <=1 
C724: x24+x40-y24_40 <=1 
C725: x24+x45 <=1 
C726: x24+x46 <=1 
C727: x24+x48 <=1 
C728: x24+x49-y24_49 <=1 
C729: x24+x51-y24_51 <=1 
C730: x24+x55-y24_55 <=1 
C731: x24+x57 <=1 
C732: x24+x59 <=1 
C733: x25+x26-y25_26 <=1 
C734: x25+x27 <=1 
C735: x25+x28-y25_28 <=1 
C736: x25+x29 <=1 
C737: x25+x30-y25_30 <=1 
C738: x25+x33 <=1 
C739: x25+x34-y25_34 <=1 
C740: x25+x35-y25_35 <=1 
C741: x25+x37-y25_37 <=1 
C742: x25+x38-y25_38 <=1 
C743: x25+x43 <=1 
C744: x25+x44-y25_44 <=1 
C745: x25+x45-y25_45 <=1 
C746: x25+x46 <=1 
C747: x25+x47-y25_47 <=1 
C748: x25+x48-y25_48 <=1 
C749: x25+x51 <=1 
C750: x25+x55 <=1 
C751: x25+x57 <=1 
C752: x25+x59 <=1 
C753: x25+x60-y25_60 <=1 
C754: x26+x27 <=1 
C755: x26+x28-y26_28 <=1 
C756: x26+x29-y26_29 <=1 
C757: x26+x30 <=1 
C758: x26+x31 <=1 
C759: x26+x33 <=1 
C760: x26+x34 <=1 
C761: x26+x35-y26_35 <=1 
C762: x26+x37 <=1 
C763: x26+x38-y26_38 <=1 
C764: x26+x41 <=1 
C765: x26+x42 <=1 
C766: x26+x45 <=1 
C767: x26+x46-y26_46 <=1 
C768: x26+x50-y26_50 <=1 
C769: x26+x51-y26_51 <=1 
C770: x26+x52-y26_52 <=1 
C771: x26+x53-y26_53 <=1 
C772: x26+x55-y26_55 <=1 
C773: x26+x58 <=1 
C774: x26+x59 <=1 
C775: x26+x60-y26_60 <=1 
C776: x27+x28-y27_28 <=1 
C777: x27+x29-y27_29 <=1 
C778: x27+x30-y27_30 <=1 
C779: x27+x31 <=1 
C780: x27+x33 <=1 
C781: x27+x34-y27_34 <=1 
C782: x27+x35 <=1 
C783: x27+x37 <=1 
C784: x27+x39-y27_39 <=1 
C785: x27+x40 <=1 
C786: x27+x42-y27_42 <=1 
C787: x27+x43 <=1 
C788: x27+x45 <=1 
C789: x27+x47 <=1 
C790: x27+x48-y27_48 <=1 
C791: x27+x49-y27_49 <=1 
C792: x27+x50 <=1 
C793: x27+x54-y27_54 <=1 
C794: x27+x55-y27_55 <=1 
C795: x27+x57-y27_57 <=1 
C796: x27+x60 <=1 
C797: x27+x61-y27_61 <=1 
C798: x28+x31-y28_31 <=1 
C799: x28+x32 <=1 
C800: x28+x36 <=1 
C801: x28+x37 <=1 
C802: x28+x38-y28_38 <=1 
C803: x28+x39-y28_39 <=1 
C804: x28+x40 <=1 
C805: x28+x41-y28_41 <=1 
C806: x28+x43 <=1 
C807: x28+x44 <=1 
C808: x28+x45-y28_45 <=1 
C809: x28+x46 <=1 
C810: x28+x47 <=1 
C811: x28+x48 <=1 
C812: x28+x49-y28_49 <=1 
C813: x28+x50-y28_50 <=1 
C814: x28+x51 <=1 
C815: x28+x53-y28_53 <=1 
C816: x28+x56-y28_56 <=1 
C817: x28+x57-y28_57 <=1 
C818: x28+x59-y28_59 <=1 
C819: x29+x32-y29_32 <=1 
C820: x29+x34 <=1 
C821: x29+x35-y29_35 <=1 
C822: x29+x36-y29_36 <=1 
C823: x29+x37-y29_37 <=1 
C824: x29+x38-y29_38 <=1 
C825: x29+x39-y29_39 <=1 
C826: x29+x40-y29_40 <=1 
C827: x29+x42 <=1 
C828: x29+x44-y29_44 <=1 
C829: x29+x45 <=1 
C830: x29+x46-y29_46 <=1 
C831: x29+x50 <=1 
C832: x29+x51-y29_51 <=1 
C833: x29+x52-y29_52 <=1 
C834: x29+x54-y29_54 <=1 
C835: x29+x59 <=1 
C836: x29+x61-y29_61 <=1 
C837: x30+x31 <=1 
C838: x30+x34 <=1 
C839: x30+x35 <=1 
C840: x30+x37 <=1 
C841: x30+x38-y30_38 <=1 
C842: x30+x42 <=1 
C843: x30+x43 <=1 
C844: x30+x44 <=1 
C845: x30+x45-y30_45 <=1 
C846: x30+x46 <=1 
C847: x30+x47-y30_47 <=1 
C848: x30+x49 <=1 
C849: x30+x51-y30_51 <=1 
C850: x30+x52 <=1 
C851: x30+x53 <=1 
C852: x30+x54-y30_54 <=1 
C853: x30+x56 <=1 
C854: x30+x58-y30_58 <=1 
C855: x30+x59-y30_59 <=1 
C856: x30+x61-y30_61 <=1 
C857: x31+x33-y31_33 <=1 
C858: x31+x34 <=1 
C859: x31+x35-y31_35 <=1 
C860: x31+x36-y31_36 <=1 
C861: x31+x37 <=1 
C862: x31+x38 <=1 
C863: x31+x41 <=1 
C864: x31+x43-y31_43 <=1 
C865: x31+x44 <=1 
C866: x31+x45-y31_45 <=1 
C867: x31+x46-y31_46 <=1 
C868: x31+x47-y31_47 <=1 
C869: x31+x48 <=1 
C870: x31+x49-y31_49 <=1 
C871: x31+x52 <=1 
C872: x31+x54 <=1 
C873: x31+x56-y31_56 <=1 
C874: x31+x57-y31_57 <=1 
C875: x31+x60 <=1 
C876: x31+x61 <=1 
C877: x32+x33 <=1 
C878: x32+x34-y32_34 <=1 
C879: x32+x35-y32_35 <=1 
C880: x32+x36-y32_36 <=1 
C881: x32+x37-y32_37 <=1 
C882: x32+x39-y32_39 <=1 
C883: x32+x40 <=1 
C884: x32+x41 <=1 
C885: x32+x43-y32_43 <=1 
C886: x32+x45-y32_45 <=1 
C887: x32+x46 <=1 
C888: x32+x47 <=1 
C889: x32+x49 <=1 
C890: x32+x50 <=1 
C891: x32+x51 <=1 
C892: x32+x53 <=1 
C893: x32+x55 <=1 
C894: x32+x56-y32_56 <=1 
C895: x32+x57-y32_57 <=1 
C896: x32+x60-y32_60 <=1 
C897: x33+x35-y33_35 <=1 
C898: x33+x37 <=1 
C899: x33+x38-y33_38 <=1 
C900: x33+x41-y33_41 <=1 
C901: x33+x42 <=1 
C902: x33+x43 <=1 
C903: x33+x45 <=1 
C904: x33+x48-y33_48 <=1 
C905: x33+x49-y33_49 <=1 
C906: x33+x51-y33_51 <=1 
C907: x33+x52 <=1 
C908: x33+x53-y33_53 <=1 
C909: x33+x55-y33_55 <=1 
C910: x33+x57 <=1 
C911: x33+x58 <=1 
C912: x33+x59-y33_59 <=1 
C913: x33+x60 <=1 
C914: x34+x36 <=1 
C915: x34+x37-y34_37 <=1 
C916: x34+x40-y34_40 <=1 
C917: x34+x43 <=1 
C918: x34+x44 <=1 
C919: x34+x46-y34_46 <=1 
C920: x34+x47 <=1 
C921: x34+x48-y34_48 <=1 
C922: x34+x49 <=1 
C923: x34+x50 <=1 
C924: x34+x51 <=1 
C925: x34+x52 <=1 
C926: x34+x53 <=1 
C927: x34+x54 <=1 
C928: x34+x57 <=1 
C929: x34+x60 <=1 
C930: x35+x37-y35_37 <=1 
C931: x35+x42-y35_42 <=1 
C932: x35+x43 <=1 
C933: x35+x44-y35_44 <=1 
C934: x35+x45-y35_45 <=1 
C935: x35+x46-y35_46 <=1 
C936: x35+x47-y35_47 <=1 
C937: x35+x48 <=1 
C938: x35+x50-y35_50 <=1 
C939: x35+x52-y35_52 <=1 
C940: x35+x58-y35_58 <=1 
C941: x35+x59-y35_59 <=1 
C942: x35+x61-y35_61 <=1 
C943: x36+x37 <=1 
C944: x36+x38-y36_38 <=1 
C945: x36+x39-y36_39 <=1 
C946: x36+x40-y36_40 <=1 
C947: x36+x41 <=1 
C948: x36+x42-y36_42 <=1 
C949: x36+x45 <=1 
C950: x36+x46-y36_46 <=1 
C951: x36+x48 <=1 
C952: x36+x49 <=1 
C953: x36+x50 <=1 
C954: x36+x51 <=1 
C955: x36+x53-y36_53 <=1 
C956: x36+x60-y36_60 <=1 
C957: x36+x61 <=1 
C958: x37+x41 <=1 
C959: x37+x42 <=1 
C960: x37+x43-y37_43 <=1 
C961: x37+x45-y37_45 <=1 
C962: x37+x47 <=1 
C963: x37+x48 <=1 
C964: x37+x51-y37_51 <=1 
C965: x37+x52 <=1 
C966: x37+x54-y37_54 <=1 
C967: x37+x56 <=1 
C968: x37+x58-y37_58 <=1 
C969: x37+x59-y37_59 <=1 
C970: x38+x39 <=1 
C971: x38+x40 <=1 
C972: x38+x41-y38_41 <=1 
C973: x38+x42 <=1 
C974: x38+x44-y38_44 <=1 
C975: x38+x48 <=1 
C976: x38+x53 <=1 
C977: x38+x55 <=1 
C978: x38+x56 <=1 
C979: x38+x57 <=1 
C980: x38+x58 <=1 
C981: x38+x61-y38_61 <=1 
C982: x39+x42 <=1 
C983: x39+x43-y39_43 <=1 
C984: x39+x44 <=1 
C985: x39+x45-y39_45 <=1 
C986: x39+x47 <=1 
C987: x39+x48 <=1 
C988: x39+x49-y39_49 <=1 
C989: x39+x50 <=1 
C990: x39+x51-y39_51 <=1 
C991: x39+x53-y39_53 <=1 
C992: x39+x55-y39_55 <=1 
C993: x39+x56-y39_56 <=1 
C994: x39+x57 <=1 
C995: x39+x60 <=1 
C996: x39+x61 <=1 
C997: x40+x41-y40_41 <=1 
C998: x40+x43-y40_43 <=1 
C999: x40+x44 <=1 
C1000: x40+x45 <=1 
C1001: x40+x46 <=1 
C1002: x40+x48-y40_48 <=1 
C1003: x40+x50-y40_50 <=1 
C1004: x40+x51-y40_51 <=1 
C1005: x40+x55 <=1 
C1006: x40+x56 <=1 
C1007: x40+x57-y40_57 <=1 
C1008: x40+x60 <=1 
C1009: x41+x42 <=1 
C1010: x41+x44-y41_44 <=1 
C1011: x41+x46-y41_46 <=1 
C1012: x41+x47 <=1 
C1013: x41+x48 <=1 
C1014: x41+x49-y41_49 <=1 
C1015: x41+x51 <=1 
C1016: x41+x52-y41_52 <=1 
C1017: x41+x53 <=1 
C1018: x41+x54 <=1 
C1019: x41+x55 <=1 
C1020: x41+x58-y41_58 <=1 
C1021: x41+x59 <=1 
C1022: x42+x43 <=1 
C1023: x42+x44 <=1 
C1024: x42+x45-y42_45 <=1 
C1025: x42+x48 <=1 
C1026: x42+x49-y42_49 <=1 
C1027: x42+x50 <=1 
C1028: x42+x52-y42_52 <=1 
C1029: x42+x53 <=1 
C1030: x42+x57-y42_57 <=1 
C1031: x42+x58-y42_58 <=1 
C1032: x42+x60-y42_60 <=1 
C1033: x42+x61 <=1 
C1034: x43+x44-y43_44 <=1 
C1035: x43+x47-y43_47 <=1 
C1036: x43+x48-y43_48 <=1 
C1037: x43+x50-y43_50 <=1 
C1038: x43+x52 <=1 
C1039: x43+x53 <=1 
C1040: x43+x54-y43_54 <=1 
C1041: x43+x55 <=1 
C1042: x43+x57 <=1 
C1043: x43+x58-y43_58 <=1 
C1044: x43+x60 <=1 
C1045: x43+x61 <=1 
C1046: x44+x45-y44_45 <=1 
C1047: x44+x48-y44_48 <=1 
C1048: x44+x49 <=1 
C1049: x44+x51 <=1 
C1050: x44+x52 <=1 
C1051: x44+x53-y44_53 <=1 
C1052: x44+x54 <=1 
C1053: x44+x57 <=1 
C1054: x44+x58-y44_58 <=1 
C1055: x44+x59-y44_59 <=1 
C1056: x45+x50 <=1 
C1057: x45+x51-y45_51 <=1 
C1058: x45+x52-y45_52 <=1 
C1059: x45+x56-y45_56 <=1 
C1060: x45+x58-y45_58 <=1 
C1061: x45+x59-y45_59 <=1 
C1062: x45+x60 <=1 
C1063: x46+x48-y46_48 <=1 
C1064: x46+x50-y46_50 <=1 
C1065: x46+x51 <=1 
C1066: x46+x53 <=1 
C1067: x46+x55 <=1 
C1068: x46+x57 <=1 
C1069: x46+x58 <=1 
C1070: x46+x60-y46_60 <=1 
C1071: x46+x61 <=1 
C1072: x47+x49 <=1 
C1073: x47+x50 <=1 
C1074: x47+x52-y47_52 <=1 
C1075: x47+x54 <=1 
C1076: x47+x56-y47_56 <=1 
C1077: x47+x59-y47_59 <=1 
C1078: x47+x60 <=1 
C1079: x47+x61-y47_61 <=1 
C1080: x48+x51-y48_51 <=1 
C1081: x48+x52-y48_52 <=1 
C1082: x48+x53-y48_53 <=1 
C1083: x48+x54-y48_54 <=1 
C1084: x48+x55 <=1 
C1085: x48+x56 <=1 
C1086: x48+x57-y48_57 <=1 
C1087: x48+x61 <=1 
C1088: x49+x50 <=1 
C1089: x49+x51 <=1 
C1090: x49+x53 <=1 
C1091: x49+x55-y49_55 <=1 
C1092: x49+x60-y49_60 <=1 
C1093: x49+x61 <=1 
C1094: x50+x51-y50_51 <=1 
C1095: x50+x52 <=1 
C1096: x50+x54 <=1 
C1097: x50+x55 <=1 
C1098: x50+x56-y50_56 <=1 
C1099: x50+x57 <=1 
C1100: x50+x58-y50_58 <=1 
C1101: x50+x59-y50_59 <=1 
C1102: x51+x53 <=1 
C1103: x51+x55-y51_55 <=1 
C1104: x51+x56-y51_56 <=1 
C1105: x51+x58-y51_58 <=1 
C1106: x51+x59-y51_59 <=1 
C1107: x51+x60 <=1 
C1108: x51+x61 <=1 
C1109: x52+x55 <=1 
C1110: x52+x57 <=1 
C1111: x52+x59-y52_59 <=1 
C1112: x52+x61 <=1 
C1113: x53+x54 <=1 
C1114: x53+x55 <=1 
C1115: x53+x57-y53_57 <=1 
C1116: x53+x61 <=1 
C1117: x54+x55 <=1 
C1118: x54+x56-y54_56 <=1 
C1119: x54+x57 <=1 
C1120: x54+x58 <=1 
C1121: x54+x61-y54_61 <=1 
C1122: x55+x56-y55_56 <=1 
C1123: x55+x57-y55_57 <=1 
C1124: x55+x58 <=1 
C1125: x56+x58-y56_58 <=1 
C1126: x56+x59-y56_59 <=1 
C1127: x56+x60 <=1 
C1128: x57+x58 <=1 
C1129: x57+x59-y57_59 <=1 
C1130: x57+x60 <=1 
C1131: x57+x61-y57_61 <=1 
C1132: x58+x59-y58_59 <=1 
C1133: x59+x60 <=1 
C1134: x59+x61 <=1 

binary
x0
x1
x2
x3
x4
x5
x6
x7
x8
x9
x10
x11
x12
x13
x14
x15
x16
x17
x18
x19
x20
x21
x22
x23
x24
x25
x26
x27
x28
x29
x30
x31
x32
x33
x34
x35
x36
x37
x38
x39
x40
x41
x42
x43
x44
x45
x46
x47
x48
x49
x50
x51
x52
x53
x54
x55
x56
x57
x58
x59
x60
x61
